param MAXWORK := 32;

param:
TNAME: TWORK :=
'window' 1600
'floor' 3200
'ceil' 3200
'bike' 9200
'scooter' 9200
'boat' 9200
;

set TSCOPE['window'] :=
1 2 3 4 5 8 9 11 12 15 16 17 18 19 22 23 24 25 26 29 30 31 32 33 36 37 38 39 40 43 44 45 46 47 50 51 52 53 54 57 58 59 60 61 64 65 66 67 68 71
72 73 74 75 78 79 80 81 82 85 86 87 88 89 92 93 94 95 96 99 100 101 102 103 106 107 108
;

set TSCOPE['floor'] :=
1 2 3 4 5 8 9 11 12 15 16 17 18 19 22 23 24 25 26 29 30 31 32 33 36 37 38 39 40 43 44 45 46 47 50 51 52 53 54 57 58 59 60 61 64 65 66 67 68 71
72 73 74 75 78 79 80 81 82 85 86 87 88 89 92 93 94 95 96 99 100 101 102 103 106 107 108
;

set TSCOPE['ceil'] :=
1 2 3 4 5 8 9 11 12 15 16 17 18 19 22 23 24 25 26 29 30 31 32 33 36 37 38 39 40 43 44 45 46 47 50 51 52 53 54 57 58 59 60 61 64 65 66 67 68 71
72 73 74 75 78 79 80 81 82 85 86 87 88 89 92 93 94 95 96 99 100 101 102 103 106 107 108
;

set TSCOPE['bike'] :=
1 2 3 4 5 8 9 11 12 15 16 17 18 19 22 23 24 25 26 29 30 31 32 33 36 37 38 39 40 43 44 45 46 47 50 51 52 53 54 57 58 59 60 61 64 65 66 67 68 71
72 73 74 75 78 79 80 81 82 85 86 87 88 89 92 93 94 95 96 99 100 101 102 103 106 107 108
;

set TSCOPE['scooter'] :=
1 2 3 4 5 8 9 11 12 15 16 17 18 19 22 23 24 25 26 29 30 31 32 33 36 37 38 39 40 43 44 45 46 47 50 51 52 53 54 57 58 59 60 61 64 65 66 67 68 71
72 73 74 75 78 79 80 81 82 85 86 87 88 89 92 93 94 95 96 99 100 101 102 103 106 107 108
;

set TSCOPE['boat'] :=
1 2 3 4 5 8 9 11 12 15 16 17 18 19 22 23 24 25 26 29 30 31 32 33 36 37 38 39 40 43 44 45 46 47 50 51 52 53 54 57 58 59 60 61 64 65 66 67 68 71
72 73 74 75 78 79 80 81 82 85 86 87 88 89 92 93 94 95 96 99 100 101 102 103 106 107 108
;

set ENAME :=
'Alojzy'
'Bernadeta'
'Eleonara'
'Edmund'
'Henryk'
'Halina'
'Felicja'
'Franciszek'
'Farida'
'Gerard'
'Grażyna'
'Gustaw'
'Gerwazy'
;

set ASSIGN :=
('Alojzy',*)
'window'
('Bernadeta',*)
'ceil'
('Edmund',*)
'floor'
('Eleonara',*)
'floor'
('Farida',*)
'scooter'
('Felicja',*)
'scooter'
('Franciszek',*)
'scooter'
('Gerard',*)
'boat'
('Gerwazy',*)
'boat'
('Grażyna',*)
'boat'
('Gustaw',*)
'boat'
('Halina',*)
'bike'
('Henryk',*)
'bike'
;

param:
XBID: XBL XBU :=

;

param:
EBID: EBN EBS EBE EBL EBU :=

;

param:
PNAME: PERS PERE :=
'25.Apr' 92 120
'25.Feb' 32 60
'25.Jan' 1 31
'25.Mar' 61 91
'25.May' 121 154
;

param:
EXPPER: PBL PBU :=

;
